CapLotSizing_PM/src/Instancias/TCLSLT/25i18p2m/NBB08.dat
25 18 2
 1
      4538
      4538
    2
     2
     4
     3
     2
     2
     2
     4
     4
     2
     3
     4
     4
     2
     4
     3
     4
     3
     3
     4
     3
     3
     3
     3
     2
   4.2  36.4   609    18 
  2.7  48.8   246    22 
  3.6  16.1   442    18 
  4.2  45.5   851    17 
  3.4  41.4    71    19 
  4.8  20.4    77    16 
  1.2  39.4   698    21 
  3.8  12.1   617    21 
  2.8  17.4   653    19 
  4.5  46.9   737    19 
  2.2  19.6   225    25 
  3.2  15.0   338    21 
  1.1  13.5   817    21 
  3.1  49.8   454    22 
  4.0  27.8   703    22 
  1.2  39.8   565    23 
  2.6  38.9   692    24 
  1.2  14.1   759    16 
  2.1  13.0   649    21 
  2.7  11.3    84    21 
  4.3  23.0   723    24 
  3.7  40.2   615    23 
  4.0  37.6   110    16 
  2.4  18.6   524    24 
  4.8  23.2   644    17 
  2.9  24.1   360    18 
  2.8  19.4   702    24 
  1.2  45.6   576    16 
  2.3  12.6   793    17 
  3.6  15.6    54    17 
  1.9  29.1   146    24 
  4.9  11.5   199    18 
  3.7  21.1   745    17 
  4.7  42.9   137    21 
  2.7  30.9   874    20 
  3.1  22.6   939    17 
  3.5  26.5   744    17 
  4.1  20.8   861    22 
  2.9  25.6   764    15 
  4.8  45.6   553    24 
  2.6  11.3   448    19 
  3.2  12.0   379    24 
  3.5  28.3   777    21 
  2.8  16.0   336    16 
  2.7  39.9   203    19 
  2.2  28.5   313    19 
  1.5  29.2    90    23 
  1.0  21.2   219    18 
  4.1  50.0   399    17 
  3.3  18.0   228    18 
  128    30    70    52   103    53   171    52    66    29   121   152    11   142    72 
  113   116    33   120   155   159    99   144    93    94   164   110    22   174   144 
    4   154    88    71    47   154   125   123    41    78   117    15    20   166     7 
   77    90   157    60    58    37    86     5    33   178    42   152    70   102    26 
   68   103   101   127     7    83   157   108    68    16   100    60    20   144    33 
  118    48    67    47    15    58    29   122     3     0    27   100    44   126    65 
  145    56    85    92   102    13   117   160   168    81   130    62    47   173   157 
  162   126    50   159    21    53    30   176    69   173   160    94    99   176   125 
  167    84   156   153    91   158   156    69    59    81   135    43    85    17   120 
  110     4    69   159    38   162    35   124    43   157   158    99   171    33   108 
  148   135   122    67    21    17   121     1    69    65   160    71    77   123    38 
  148   108    50    35   120    19   161   154    58    93    75    41    63    31    77 
  128   118   141    44   103   124    55   174   147   117    11    55     2   131   118 
   30   143   176   172   171   179   179    92   151   156    96    67    77   147    39 
  125   139   176   152     2    54   135   167   140   126   139   111   149   132    16 
  150   168   158    39   158    46    76   108   162   174   143   133   148   110   164 
   95    66    76    51   158    31    64   163    83   122    75    22    58   162   115 
   92    35    22   171   153   173    28   166   124     2     0    66   135    49   156 
   43    94    27     8    35   154   164    71    24    68 
   69    26    80    85   131     3     5    63    10   178 
  178   113     5    72   129    61   105     4    85   112 
  170    80    61    61    66   136    43    69   160   123 
  172   137    16    24   115   168   148   148    79    39 
  168    42    99    81    44   166   105    88    53   173 
  159     5    83    94    95   134   112    48   116    21 
   87    71    62    46   168    79   139    36   159   150 
  143   141   157     0    33   105   161    55    77    59 
   69    47   118   166   119    95    17   136    87    42 
   42   104    63   140   159    75    94   133    72   120 
   13   107    80   157   116    36   123   157    93    70 
  153     6   148   115    15    73   146   122   149    64 
   64   147     4   121    94   138    37    26    94    48 
   47    10   122   114     5    35     9    26   111   166 
   50    23   175     2    20    11   171    27    77   124 
  127   163    22    24    42   121   135   145   101   108 
   15    77   178    64   140   139    80    89    51   153 
