CapLotSizing_PM/src/Instancias/TCLSLT/25i18p2m/NBB08.OUT
 CG ITER, OVMR, OVMRUB =           1  103631.5859375  103631.5859375
 CG ITER, OVMR, OVMRUB =           2  103547.0312500  103547.0546875
 CG ITER, OVMR, OVMRUB =           3  103547.0468750  103547.0546875
 CG ITER, OVMR, OVMRUB =           4  103533.0781250  103547.0546875
 CG ITER, OVMR, OVMRUB =           5  103098.2187500  103547.0546875
 CG ITER, OVMR, OVMRUB =           6  102408.0468750  103547.0546875
 CG ITER, OVMR, OVMRUB =           7  102647.1953125  103547.0546875
 CG ITER, OVMR, OVMRUB =           8  100914.3750000  103547.0546875
 CG ITER, OVMR, OVMRUB =           9   99742.4843750  103547.0546875
 CG ITER, OVMR, OVMRUB =          10   97982.0234375  103547.0546875
 CG ITER, OVMR, OVMRUB =          11   97477.6015625  103547.0546875
 CG ITER, OVMR, OVMRUB =          12   97206.2109375  103547.0546875
 CG ITER, OVMR, OVMRUB =          13   97406.2109375  103547.0546875
 CG ITER, OVMR, OVMRUB =          14   96860.9765625  103547.0546875
 CG ITER, OVMR, OVMRUB =          15   96435.3203125  103547.0546875
 CG ITER, OVMR, OVMRUB =          16   96260.2656250  103547.0546875
 CG ITER, OVMR, OVMRUB =          17   96282.6562500  103547.0546875
 CG ITER, OVMR, OVMRUB =          18   96020.3203125  103547.0546875
 CG ITER, OVMR, OVMRUB =          19   95933.1718750  103547.0546875
 CG ITER, OVMR, OVMRUB =          20   95782.0859375  103547.0546875
 CG ITER, OVMR, OVMRUB =          21   95540.1250000  103547.0546875
 CG ITER, OVMR, OVMRUB =          22   95351.5546875  103547.0546875
 CG ITER, OVMR, OVMRUB =          23   95169.1250000  103547.0546875
 CG ITER, OVMR, OVMRUB =          24   94989.0546875  103547.0546875
 CG ITER, OVMR, OVMRUB =          25   94800.3281250  103547.0546875
 CG ITER, OVMR, OVMRUB =          26   94615.5703125  103547.0546875
 CG ITER, OVMR, OVMRUB =          27   94427.2968750  103547.0546875
 CG ITER, OVMR, OVMRUB =          28   94280.6015625  103547.0546875
 CG ITER, OVMR, OVMRUB =          29   94126.6484375  103547.0546875
 CG ITER, OVMR, OVMRUB =          30   94000.5781250  103547.0546875
 CG ITER, OVMR, OVMRUB =          31   93822.3515625  103547.0546875
 CG ITER, OVMR, OVMRUB =          32   93683.8437500  103547.0546875
 CG ITER, OVMR, OVMRUB =          33   93580.4531250  103547.0546875
 CG ITER, OVMR, OVMRUB =          34   93453.6328125  103547.0546875
 CG ITER, OVMR, OVMRUB =          35   93321.9453125  103547.0546875
 CG ITER, OVMR, OVMRUB =          36   93195.5078125  103547.0546875
 CG ITER, OVMR, OVMRUB =          37   93096.3828125  103547.0546875
 CG ITER, OVMR, OVMRUB =          38   92968.6796875  103547.0546875
 CG ITER, OVMR, OVMRUB =          39   92897.3593750  103547.0546875
 CG ITER, OVMR, OVMRUB =          40   92810.6796875  103547.0546875
 CG ITER, OVMR, OVMRUB =          41   92739.4687500  103547.0546875
 CG ITER, OVMR, OVMRUB =          42   92624.8671875  103547.0546875
 CG ITER, OVMR, OVMRUB =          43   92550.6953125  103547.0546875
 CG ITER, OVMR, OVMRUB =          44   92467.0546875  103547.0546875
 CG ITER, OVMR, OVMRUB =          45   92413.7031250  103547.0546875
 CG ITER, OVMR, OVMRUB =          46   92334.6718750  103547.0546875
 CG ITER, OVMR, OVMRUB =          47   92281.6250000  103547.0546875
 CG ITER, OVMR, OVMRUB =          48   92209.7812500  103547.0546875
 CG ITER, OVMR, OVMRUB =          49   92160.3593750  103547.0546875
 CG ITER, OVMR, OVMRUB =          50   92087.3984375  103547.0546875
 CG ITER, OVMR, OVMRUB =          51   92023.6875000  103547.0546875
 CG ITER, OVMR, OVMRUB =          52   91982.8906250  103547.0546875
 CG ITER, OVMR, OVMRUB =          53   91922.1796875  103547.0546875
 CG ITER, OVMR, OVMRUB =          54   91889.8437500  103547.0546875
 CG ITER, OVMR, OVMRUB =          55   91852.5234375  103547.0546875
 CG ITER, OVMR, OVMRUB =          56   91808.6328125  103547.0546875
 CG ITER, OVMR, OVMRUB =          57   91769.0703125  103547.0546875
 CG ITER, OVMR, OVMRUB =          58   91741.5859375  103547.0546875
 CG ITER, OVMR, OVMRUB =          59   91705.1406250  103547.0546875
 CG ITER, OVMR, OVMRUB =          60   91677.6562500  103547.0546875
 CG ITER, OVMR, OVMRUB =          61   91640.3750000  103547.0546875
 CG ITER, OVMR, OVMRUB =          62   91620.3671875  103547.0546875
 CG ITER, OVMR, OVMRUB =          63   91599.7968750  103547.0546875
 CG ITER, OVMR, OVMRUB =          64   91569.8515625  103547.0546875
 CG ITER, OVMR, OVMRUB =          65   91541.0625000  103547.0546875
 CG ITER, OVMR, OVMRUB =          66   91513.2187500  103547.0546875
 CG ITER, OVMR, OVMRUB =          67   91489.3671875  103547.0546875
 CG ITER, OVMR, OVMRUB =          68   91461.4843750  103547.0546875
 CG ITER, OVMR, OVMRUB =          69   91437.7968750  103547.0546875
 CG ITER, OVMR, OVMRUB =          70   91403.8125000  103547.0546875
 CG ITER, OVMR, OVMRUB =          71   91403.1250000  103547.0546875
 CG ITER, OVMR, OVMRUB =          72   91383.5312500  103547.0546875
 CG ITER, OVMR, OVMRUB =          73   91365.8125000  103547.0546875
 CG ITER, OVMR, OVMRUB =          74   91343.7578125  103547.0546875
 CG ITER, OVMR, OVMRUB =          75   91330.5390625  103547.0546875
 CG ITER, OVMR, OVMRUB =          76   91323.7421875  103547.0546875
 CG ITER, OVMR, OVMRUB =          77   91309.3046875  103547.0546875
 CG ITER, OVMR, OVMRUB =          78   91301.1875000  103547.0546875
 CG ITER, OVMR, OVMRUB =          79   91286.1875000  103547.0546875
 CG ITER, OVMR, OVMRUB =          80   91273.5312500  103547.0546875
 CG ITER, OVMR, OVMRUB =          81   91265.7343750  103547.0546875
 CG ITER, OVMR, OVMRUB =          82   91255.9375000  103547.0546875
 CG ITER, OVMR, OVMRUB =          83   91244.5937500  103547.0546875
 CG ITER, OVMR, OVMRUB =          84   91235.9453125  101195.6640625
 CG ITER, OVMR, OVMRUB =          85   91222.6250000  101195.6640625
 CG ITER, OVMR, OVMRUB =          86   91216.0703125  101195.6640625
 CG ITER, OVMR, OVMRUB =          87   91212.8437500  101195.6640625
 CG ITER, OVMR, OVMRUB =          88   91209.3906250  101195.6640625
 CG ITER, OVMR, OVMRUB =          89   91201.2343750  101195.6640625
 CG ITER, OVMR, OVMRUB =          90   91198.3750000  101195.6640625
 CG ITER, OVMR, OVMRUB =          91   91197.4062500   99924.9531250
 CG ITER, OVMR, OVMRUB =          92   91193.2343750   99924.9531250
 CG ITER, OVMR, OVMRUB =          93   91188.0937500   99924.9531250
 CG ITER, OVMR, OVMRUB =          94   91184.1562500   99924.9531250
 CG ITER, OVMR, OVMRUB =          95   91181.6718750   99924.9531250
 CG ITER, OVMR, OVMRUB =          96   91180.8046875   99924.9531250
 CG ITER, OVMR, OVMRUB =          97   91179.2109375   99924.9531250
 CG ITER, OVMR, OVMRUB =          98   91174.8203125   99924.9531250
 CG ITER, OVMR, OVMRUB =          99   91176.3515625   99924.9531250
 CG ITER, OVMR, OVMRUB =         100   91174.5312500   99924.9531250
 CG ITER, OVMR, OVMRUB =         101   91171.9531250   99924.9531250
 CG ITER, OVMR, OVMRUB =         102   91168.7734375   99924.9531250
 CG ITER, OVMR, OVMRUB =         103   91167.1171875   99924.9531250
 CG ITER, OVMR, OVMRUB =         104   91166.1953125   99924.9531250
 CG ITER, OVMR, OVMRUB =         105   91165.3281250   99924.9531250
 CG ITER, OVMR, OVMRUB =         106   91165.0312500   99924.9531250
 CG ITER, OVMR, OVMRUB =         107   91162.2265625   99924.9531250
 CG ITER, OVMR, OVMRUB =         108   91162.2578125   99924.9531250
 CG ITER, OVMR, OVMRUB =         109   91162.0546875   99544.4062500
 CG ITER, OVMR, OVMRUB =         110   91161.4375000   99544.4062500
 CG ITER, OVMR, OVMRUB =         111   91161.6328125   96112.5625000
 CG ITER, OVMR, OVMRUB =         112   91163.0468750   96112.5625000
 CG ITER, OVMR, OVMRUB =         113   91159.7968750   96112.5625000
 CG ITER, OVMR, OVMRUB =         114   91160.5468750   96112.5625000
 CG ITER, OVMR, OVMRUB =         115   91160.4765625   96112.5625000
 CG ITER, OVMR, OVMRUB =         116   91159.7109375   96112.5625000
 CG ITER, OVMR, OVMRUB =         117   91159.7812500   96112.5625000
 CG ITER, OVMR, OVMRUB =         118   91159.4140625   96112.5625000
 CG ITER, OVMR, OVMRUB =         119   91158.3593750   96112.5625000
 CG ITER, OVMR, OVMRUB =         120   91157.1250000   96112.5625000
 CG ITER, OVMR, OVMRUB =         121   91158.1406250   96112.5625000
 CG ITER, OVMR, OVMRUB =         122   91157.2343750   96112.5625000
 CG ITER, OVMR, OVMRUB =         123   91157.2656250   96112.5625000
 CG ITER, OVMR, OVMRUB =         124   91158.3046875   96112.5625000
 CG ITER, OVMR, OVMRUB =         125   91158.4765625   96112.5625000
 CG ITER, OVMR, OVMRUB =         126   91158.4843750   96112.5625000
 CG ITER, OVMR, OVMRUB =         127   91156.6562500   96112.5625000
 CG ITER, OVMR, OVMRUB =         128   91158.9218750   96032.2500000
 CG ITER, OVMR, OVMRUB =         129   91157.6640625   96032.2500000
 CG ITER, OVMR, OVMRUB =         130   91157.7421875   96032.2500000
 CG ITER, OVMR, OVMRUB =         131   91158.6484375   96032.2500000
 CG ITER, OVMR, OVMRUB =         132   91158.1406250   96032.2500000
 CG ITER, OVMR, OVMRUB =         133   91157.5078125   95841.5859375
 CG ITER, OVMR, OVMRUB =         134   91156.9609375   95841.5859375
 CG ITER, OVMR, OVMRUB =         135   91156.4062500   95841.5859375
 CG ITER, OVMR, OVMRUB =         136   91158.0703125   95841.5859375
 CG ITER, OVMR, OVMRUB =         137   91158.0625000   95841.5859375
 CG ITER, OVMR, OVMRUB =         138   91157.3203125   95841.5859375
 CG ITER, OVMR, OVMRUB =         139   91157.8203125   95841.5859375
 CG ITER, OVMR, OVMRUB =         140   91157.4062500   95841.5859375
 CG ITER, OVMR, OVMRUB =         141   91158.1562500   95841.5859375
 CG ITER, OVMR, OVMRUB =         142   91158.1562500   95281.9375000
OVLB =   91158.1562500 OVLUB =   95281.9375000 TIME =     327.6199951
